problems/csplib-prob015/SchursLemma-models/noch/O2/lingeling/model_1_2-5-9-solution000001.solution
language Essence 1.3

letting boxes be partition({1}, {2}, {3, 5, 9}, {4, 6, 8}, {7})
